benchmarks_vrp/CMT4/fixed_c/CMT4_1.vrp
NAME: CMT4_1
TYPE: CVRP
COMMENT: 1028.42 - Cluster Nr.1
DIMENSION: 11
CAPACITY: 200
EDGE_WEIGHT_TYPE: EUC_2D
NODE_COORD_TYPE: TWOD_COORDS
NODE_COORD_SECTION: 
9 63 23
11 55 20
3 35 35
6 55 5
2 67 5
5 59 15
4 53 12
10 51 21
1 58 27
7 65 20
8 60 12
DEPOT_SECTION: 
3
-1
DEMAND_SECTION: 
4 6
7 6
5 14
11 19
3 0
9 2
10 5
1 19
2 25
8 31
6 29
EOF
