benchmarks_vrp/CMT4/fixed_c/CMT4_1.tour
NAME: CMT4_1 solution
TYPE: TOUR
TOUR_SECTION:
3 1 9 7 5 8 2 6 4 11 10 -1
-1
EOF